Version identifier: 20.1.0.0 | 2020-11-10 | 9bedb6d68
Tried aggregator 2 times.
MIP Presolve eliminated 949 rows and 463 columns.
MIP Presolve modified 2370 coefficients.
Aggregator did 116 substitutions.
Reduced MIP has 1344 rows, 1086 columns, and 4414 nonzeros.
Reduced MIP has 206 binaries, 880 generals, 0 SOSs, and 0 indicators.
Presolve time = 0.01 sec. (5.41 ticks)
Found incumbent of value 2426.000000 after 0.03 sec. (10.96 ticks)
Probing fixed 26 vars, tightened 296 bounds.
Probing time = 0.00 sec. (0.96 ticks)
Tried aggregator 2 times.
Detecting symmetries...
MIP Presolve eliminated 507 rows and 30 columns.
MIP Presolve modified 111 coefficients.
Aggregator did 4 substitutions.
Reduced MIP has 833 rows, 1052 columns, and 2725 nonzeros.
Reduced MIP has 276 binaries, 776 generals, 0 SOSs, and 0 indicators.
Presolve time = 0.01 sec. (3.65 ticks)
Probing time = 0.00 sec. (0.29 ticks)
Clique table members: 21.
MIP emphasis: balance optimality and feasibility.
MIP search method: dynamic search.
Parallel mode: deterministic, using up to 24 threads.
Root relaxation solution time = 0.01 sec. (2.99 ticks)

        Nodes                                         Cuts/
   Node  Left     Objective  IInf  Best Integer    Best Bound    ItCnt     Gap

*     0+    0                         2426.0000        0.0000           100.00%
*     0+    0                           87.0000        0.0000           100.00%
      0     0        0.0000    67       87.0000        0.0000      296  100.00%
      0     0        0.0000    36       87.0000      Cuts: 63      341  100.00%
      0     0        0.0000   114       87.0000      Cuts: 67      410  100.00%
      0     0        0.0000    69       87.0000      Cuts: 27      471  100.00%
      0     0        0.0128   282       87.0000      Cuts: 72      867   99.99%
*     0+    0                           43.0000        0.0128            99.97%
      0     0        0.0272   297       43.0000     Cuts: 124     1032   99.94%
*     0+    0                           15.0000        0.0272            99.82%
      0     0        cutoff             15.0000       15.0000     1165    0.00%
Elapsed time = 1.08 sec. (95.83 ticks, tree = 0.01 MB, solutions = 4)

Implied bound cuts applied:  41
Flow cuts applied:  22
Mixed integer rounding cuts applied:  36
Zero-half cuts applied:  72
Lift and project cuts applied:  7
Gomory fractional cuts applied:  5

Root node processing (before b&c):
  Real time             =    1.08 sec. (95.93 ticks)
Parallel b&c, 24 threads:
  Real time             =    0.00 sec. (0.00 ticks)
  Sync time (average)   =    0.00 sec.
  Wait time (average)   =    0.00 sec.
                          ------------
Total (root+branch&cut) =    1.08 sec. (95.93 ticks)

Solution status = Optimal
Solution LB = 15
Solution UB = 15
Runtime = 1.08311 seconds
	Command being timed: "/home/min/git_repos/CS598MEBProject/CNT-ILP/build/cnt -s 2 ./output/k8_n15/simC_c1_k8_n15_u2_s2_del02.input-right.cnp"
	User time (seconds): 16.87
	System time (seconds): 0.09
	Percent of CPU this job got: 1525%
	Elapsed (wall clock) time (h:mm:ss or m:ss): 0:01.11
	Average shared text size (kbytes): 0
	Average unshared data size (kbytes): 0
	Average stack size (kbytes): 0
	Average total size (kbytes): 0
	Maximum resident set size (kbytes): 99664
	Average resident set size (kbytes): 0
	Major (requiring I/O) page faults: 0
	Minor (reclaiming a frame) page faults: 22041
	Voluntary context switches: 4552
	Involuntary context switches: 2052
	Swaps: 0
	File system inputs: 0
	File system outputs: 16
	Socket messages sent: 0
	Socket messages received: 0
	Signals delivered: 0
	Page size (bytes): 4096
	Exit status: 0
